Route #1: 67 34 46 52 27 45 29 48 47 21
Route #2: 61 69 36 71 60 70 20 37 5 15 57 13 54 19 8 7
Route #3: 35 53 14 59 11 66 65 38 10
Route #4: 12 39 9 32 50 18 55 25 31 72 58 26
Route #5: 17 40 44 3 24 49 56 23 63 33 16 51
Route #6: 6 73 1 43 41 42 64 22 62 28 74 2
Route #7: 4 30 68 75
Cost 722